115049.0	54000.0
115049.0	54000.0
117614.0	51000.0
118528.0	42000.0
161506.0	18000.0
167106.0	0.0
121256.0	39000.0
121256.0	39000.0
125261.0	36000.0
133302.0	33000.0
137933.0	27000.0
149882.0	24000.0
155753.0	21000.0
